set F_UNIQ := 11 16 21;
set F_NODES[11] := 11 12 13 14 15;
set F_NODES[16] := 16 17 18 19 20;
set F_NODES[21] := 21 22 23 24 25;
#definition

# set
set V := 1 2 3 4 5 6 7 8 9 10 ; 	# customer set
set F := 11 16 21 
12 13 14 15 
17 18 19 20 
22 23 24 25 ;#recharging & battery swapping station
set D0 :=0;
set Dsig :=26;


# param
param CV := 200;    		# ECV fixed cost(Topic Given)
param C := 700;   		# ECV max load
param Q := 77.75; 		# ECV/BSV battery level
param h := 1;     		# ECV consumption

param CB := 267;    		# BSV fixed cost(Topic Given)
param Qplun := 5;       # BSV max load(battery)
param hplun := 1;     	# BSV consumption
param W :=155.50;		# BSV battery level

param Ct := 10;    		# travel cost
param Cr := 100;    		# recharging cost
param lamda := 0.00;	# battery swap time
param Cb;  	    # battery swap cost(BSS/BSV)
param n :=10;	   		# number of customers
param g :=10.41 ;     	# the recharging rate of ECV 



# customer demend
param m :=
0 0
1 20
2 10
3 10
4 20
5 10
6 20
7 10
8 10
9 30
10 40
11 0
16 0
21 0
12 0
13 0
14 0
15 0
17 0
18 0
19 0
20 0
22 0
23 0
24 0
25 0
26 0;

param e :=
0 0
1 2807
2 2521
3 2400
4 1455
5 708
6 38
7 508
8 327
9 1270
10 2136
11 0
16 0
21 0
12 0
13 0
14 0
15 0
17 0
18 0
19 0
20 0
22 0
23 0
24 0
25 0
26 0;

param l :=
0 3390
1 3127
2 2841
3 2720
4 1775
5 1028
6 358
7 828
8 647
9 1590
10 2456
11 3390
16 3390
21 3390
12 3390
13 3390
14 3390
15 3390
17 3390
18 3390
19 3390
20 3390
22 3390
23 3390
24 3390
25 3390
26 3390;

param s :=
0 0
1 90
2 90
3 90
4 90
5 90
6 90
7 90
8 90
9 90
10 90
11 0
16 0
21 0
12 0
13 0
14 0
15 0
17 0
18 0
19 0
20 0
22 0
23 0
24 0
25 0
26 0;

param d : 0 1 2 3 4 5 6 7 8 9 10 11 16 21 12 13 14 15 17 18 19 20 22 23 24 25 26 :=
0 0.0000 11.6619 23.3238 18.0278 45.2769 40.6079 15.8114 16.5529 33.5410 45.0000 36.0555 0.0000 36.2353 24.0208 0.0000 0.0000 0.0000 0.0000 36.2353 36.2353 36.2353 36.2353 24.0208 24.0208 24.0208 24.0208 0.0000
1 11.6619 0.0000 11.6619 25.3180 55.0091 38.0132 12.0830 28.1780 29.0000 55.3263 24.4131 11.6619 31.8277 34.3657 11.6619 11.6619 11.6619 11.6619 31.8277 31.8277 31.8277 31.8277 34.3657 34.3657 34.3657 34.3657 11.6619
2 23.3238 11.6619 0.0000 35.0571 65.3758 38.8973 17.7200 39.8246 28.7924 66.0984 12.8062 23.3238 31.3847 45.3542 23.3238 23.3238 23.3238 23.3238 31.3847 31.3847 31.3847 31.3847 45.3542 45.3542 45.3542 45.3542 23.3238
3 18.0278 25.3180 35.0571 0.0000 30.4138 58.6003 33.5410 17.0000 51.4782 31.6228 46.0977 18.0278 54.2033 12.7279 18.0278 18.0278 18.0278 18.0278 54.2033 54.2033 54.2033 54.2033 12.7279 12.7279 12.7279 12.7279 18.0278
4 45.2769 55.0091 65.3758 30.4138 0.0000 82.6378 60.8276 32.3110 77.6209 5.0000 76.4853 45.2769 80.0812 21.3776 45.2769 45.2769 45.2769 45.2769 80.0812 80.0812 80.0812 80.0812 21.3776 21.3776 21.3776 21.3776 45.2769
5 40.6079 38.0132 38.8973 58.6003 82.6378 0.0000 26.2488 50.3289 10.1980 80.9568 45.0444 40.6079 8.0000 61.7414 40.6079 40.6079 40.6079 40.6079 8.0000 8.0000 8.0000 8.0000 61.7414 61.7414 61.7414 61.7414 40.6079
6 15.8114 12.0830 17.7200 33.5410 60.8276 26.2488 0.0000 30.0666 18.0278 60.2080 29.1548 15.8114 20.8087 39.4588 15.8114 15.8114 15.8114 15.8114 20.8087 20.8087 20.8087 20.8087 39.4588 39.4588 39.4588 39.4588 15.8114
7 16.5529 28.1780 39.8246 17.0000 32.3110 50.3289 30.0666 0.0000 45.7056 30.8058 52.4786 16.5529 48.0521 12.0416 16.5529 16.5529 16.5529 16.5529 48.0521 48.0521 48.0521 48.0521 12.0416 12.0416 12.0416 12.0416 16.5529
8 33.5410 29.0000 28.7924 51.4782 77.6209 10.1980 18.0278 45.7056 0.0000 76.4853 35.0000 33.5410 2.8284 56.3205 33.5410 33.5410 33.5410 33.5410 2.8284 2.8284 2.8284 2.8284 56.3205 56.3205 56.3205 56.3205 33.5410
9 45.0000 55.3263 66.0984 31.6228 5.0000 80.9568 60.2080 30.8058 76.4853 0.0000 77.6209 45.0000 78.8543 21.0238 45.0000 45.0000 45.0000 45.0000 78.8543 78.8543 78.8543 78.8543 21.0238 21.0238 21.0238 21.0238 45.0000
10 36.0555 24.4131 12.8062 46.0977 76.4853 45.0444 29.1548 52.4786 35.0000 77.6209 0.0000 36.0555 37.0540 57.2451 36.0555 36.0555 36.0555 36.0555 37.0540 37.0540 37.0540 37.0540 57.2451 57.2451 57.2451 57.2451 36.0555
11 0.0000 11.6619 23.3238 18.0278 45.2769 40.6079 15.8114 16.5529 33.5410 45.0000 36.0555 0.0000 36.2353 24.0208 0.0000 0.0000 0.0000 0.0000 36.2353 36.2353 36.2353 36.2353 24.0208 24.0208 24.0208 24.0208 0.0000
16 36.2353 31.8277 31.3847 54.2033 80.0812 8.0000 20.8087 48.0521 2.8284 78.8543 37.0540 36.2353 0.0000 58.8218 36.2353 36.2353 36.2353 36.2353 0.0000 0.0000 0.0000 0.0000 58.8218 58.8218 58.8218 58.8218 36.2353
21 24.0208 34.3657 45.3542 12.7279 21.3776 61.7414 39.4588 12.0416 56.3205 21.0238 57.2451 24.0208 58.8218 0.0000 24.0208 24.0208 24.0208 24.0208 58.8218 58.8218 58.8218 58.8218 0.0000 0.0000 0.0000 0.0000 24.0208
12 0.0000 11.6619 23.3238 18.0278 45.2769 40.6079 15.8114 16.5529 33.5410 45.0000 36.0555 0.0000 36.2353 24.0208 0.0000 0.0000 0.0000 0.0000 36.2353 36.2353 36.2353 36.2353 24.0208 24.0208 24.0208 24.0208 0.0000
13 0.0000 11.6619 23.3238 18.0278 45.2769 40.6079 15.8114 16.5529 33.5410 45.0000 36.0555 0.0000 36.2353 24.0208 0.0000 0.0000 0.0000 0.0000 36.2353 36.2353 36.2353 36.2353 24.0208 24.0208 24.0208 24.0208 0.0000
14 0.0000 11.6619 23.3238 18.0278 45.2769 40.6079 15.8114 16.5529 33.5410 45.0000 36.0555 0.0000 36.2353 24.0208 0.0000 0.0000 0.0000 0.0000 36.2353 36.2353 36.2353 36.2353 24.0208 24.0208 24.0208 24.0208 0.0000
15 0.0000 11.6619 23.3238 18.0278 45.2769 40.6079 15.8114 16.5529 33.5410 45.0000 36.0555 0.0000 36.2353 24.0208 0.0000 0.0000 0.0000 0.0000 36.2353 36.2353 36.2353 36.2353 24.0208 24.0208 24.0208 24.0208 0.0000
17 36.2353 31.8277 31.3847 54.2033 80.0812 8.0000 20.8087 48.0521 2.8284 78.8543 37.0540 36.2353 0.0000 58.8218 36.2353 36.2353 36.2353 36.2353 0.0000 0.0000 0.0000 0.0000 58.8218 58.8218 58.8218 58.8218 36.2353
18 36.2353 31.8277 31.3847 54.2033 80.0812 8.0000 20.8087 48.0521 2.8284 78.8543 37.0540 36.2353 0.0000 58.8218 36.2353 36.2353 36.2353 36.2353 0.0000 0.0000 0.0000 0.0000 58.8218 58.8218 58.8218 58.8218 36.2353
19 36.2353 31.8277 31.3847 54.2033 80.0812 8.0000 20.8087 48.0521 2.8284 78.8543 37.0540 36.2353 0.0000 58.8218 36.2353 36.2353 36.2353 36.2353 0.0000 0.0000 0.0000 0.0000 58.8218 58.8218 58.8218 58.8218 36.2353
20 36.2353 31.8277 31.3847 54.2033 80.0812 8.0000 20.8087 48.0521 2.8284 78.8543 37.0540 36.2353 0.0000 58.8218 36.2353 36.2353 36.2353 36.2353 0.0000 0.0000 0.0000 0.0000 58.8218 58.8218 58.8218 58.8218 36.2353
22 24.0208 34.3657 45.3542 12.7279 21.3776 61.7414 39.4588 12.0416 56.3205 21.0238 57.2451 24.0208 58.8218 0.0000 24.0208 24.0208 24.0208 24.0208 58.8218 58.8218 58.8218 58.8218 0.0000 0.0000 0.0000 0.0000 24.0208
23 24.0208 34.3657 45.3542 12.7279 21.3776 61.7414 39.4588 12.0416 56.3205 21.0238 57.2451 24.0208 58.8218 0.0000 24.0208 24.0208 24.0208 24.0208 58.8218 58.8218 58.8218 58.8218 0.0000 0.0000 0.0000 0.0000 24.0208
24 24.0208 34.3657 45.3542 12.7279 21.3776 61.7414 39.4588 12.0416 56.3205 21.0238 57.2451 24.0208 58.8218 0.0000 24.0208 24.0208 24.0208 24.0208 58.8218 58.8218 58.8218 58.8218 0.0000 0.0000 0.0000 0.0000 24.0208
25 24.0208 34.3657 45.3542 12.7279 21.3776 61.7414 39.4588 12.0416 56.3205 21.0238 57.2451 24.0208 58.8218 0.0000 24.0208 24.0208 24.0208 24.0208 58.8218 58.8218 58.8218 58.8218 0.0000 0.0000 0.0000 0.0000 24.0208
26 0.0000 11.6619 23.3238 18.0278 45.2769 40.6079 15.8114 16.5529 33.5410 45.0000 36.0555 0.0000 36.2353 24.0208 0.0000 0.0000 0.0000 0.0000 36.2353 36.2353 36.2353 36.2353 24.0208 24.0208 24.0208 24.0208 0.0000
;

param t : 0 1 2 3 4 5 6 7 8 9 10 11 16 21 12 13 14 15 17 18 19 20 22 23 24 25 26 :=
0 0.0000 11.6619 23.3238 18.0278 45.2769 40.6079 15.8114 16.5529 33.5410 45.0000 36.0555 0.0000 36.2353 24.0208 0.0000 0.0000 0.0000 0.0000 36.2353 36.2353 36.2353 36.2353 24.0208 24.0208 24.0208 24.0208 0.0000
1 11.6619 0.0000 11.6619 25.3180 55.0091 38.0132 12.0830 28.1780 29.0000 55.3263 24.4131 11.6619 31.8277 34.3657 11.6619 11.6619 11.6619 11.6619 31.8277 31.8277 31.8277 31.8277 34.3657 34.3657 34.3657 34.3657 11.6619
2 23.3238 11.6619 0.0000 35.0571 65.3758 38.8973 17.7200 39.8246 28.7924 66.0984 12.8062 23.3238 31.3847 45.3542 23.3238 23.3238 23.3238 23.3238 31.3847 31.3847 31.3847 31.3847 45.3542 45.3542 45.3542 45.3542 23.3238
3 18.0278 25.3180 35.0571 0.0000 30.4138 58.6003 33.5410 17.0000 51.4782 31.6228 46.0977 18.0278 54.2033 12.7279 18.0278 18.0278 18.0278 18.0278 54.2033 54.2033 54.2033 54.2033 12.7279 12.7279 12.7279 12.7279 18.0278
4 45.2769 55.0091 65.3758 30.4138 0.0000 82.6378 60.8276 32.3110 77.6209 5.0000 76.4853 45.2769 80.0812 21.3776 45.2769 45.2769 45.2769 45.2769 80.0812 80.0812 80.0812 80.0812 21.3776 21.3776 21.3776 21.3776 45.2769
5 40.6079 38.0132 38.8973 58.6003 82.6378 0.0000 26.2488 50.3289 10.1980 80.9568 45.0444 40.6079 8.0000 61.7414 40.6079 40.6079 40.6079 40.6079 8.0000 8.0000 8.0000 8.0000 61.7414 61.7414 61.7414 61.7414 40.6079
6 15.8114 12.0830 17.7200 33.5410 60.8276 26.2488 0.0000 30.0666 18.0278 60.2080 29.1548 15.8114 20.8087 39.4588 15.8114 15.8114 15.8114 15.8114 20.8087 20.8087 20.8087 20.8087 39.4588 39.4588 39.4588 39.4588 15.8114
7 16.5529 28.1780 39.8246 17.0000 32.3110 50.3289 30.0666 0.0000 45.7056 30.8058 52.4786 16.5529 48.0521 12.0416 16.5529 16.5529 16.5529 16.5529 48.0521 48.0521 48.0521 48.0521 12.0416 12.0416 12.0416 12.0416 16.5529
8 33.5410 29.0000 28.7924 51.4782 77.6209 10.1980 18.0278 45.7056 0.0000 76.4853 35.0000 33.5410 2.8284 56.3205 33.5410 33.5410 33.5410 33.5410 2.8284 2.8284 2.8284 2.8284 56.3205 56.3205 56.3205 56.3205 33.5410
9 45.0000 55.3263 66.0984 31.6228 5.0000 80.9568 60.2080 30.8058 76.4853 0.0000 77.6209 45.0000 78.8543 21.0238 45.0000 45.0000 45.0000 45.0000 78.8543 78.8543 78.8543 78.8543 21.0238 21.0238 21.0238 21.0238 45.0000
10 36.0555 24.4131 12.8062 46.0977 76.4853 45.0444 29.1548 52.4786 35.0000 77.6209 0.0000 36.0555 37.0540 57.2451 36.0555 36.0555 36.0555 36.0555 37.0540 37.0540 37.0540 37.0540 57.2451 57.2451 57.2451 57.2451 36.0555
11 0.0000 11.6619 23.3238 18.0278 45.2769 40.6079 15.8114 16.5529 33.5410 45.0000 36.0555 0.0000 36.2353 24.0208 0.0000 0.0000 0.0000 0.0000 36.2353 36.2353 36.2353 36.2353 24.0208 24.0208 24.0208 24.0208 0.0000
16 36.2353 31.8277 31.3847 54.2033 80.0812 8.0000 20.8087 48.0521 2.8284 78.8543 37.0540 36.2353 0.0000 58.8218 36.2353 36.2353 36.2353 36.2353 0.0000 0.0000 0.0000 0.0000 58.8218 58.8218 58.8218 58.8218 36.2353
21 24.0208 34.3657 45.3542 12.7279 21.3776 61.7414 39.4588 12.0416 56.3205 21.0238 57.2451 24.0208 58.8218 0.0000 24.0208 24.0208 24.0208 24.0208 58.8218 58.8218 58.8218 58.8218 0.0000 0.0000 0.0000 0.0000 24.0208
12 0.0000 11.6619 23.3238 18.0278 45.2769 40.6079 15.8114 16.5529 33.5410 45.0000 36.0555 0.0000 36.2353 24.0208 0.0000 0.0000 0.0000 0.0000 36.2353 36.2353 36.2353 36.2353 24.0208 24.0208 24.0208 24.0208 0.0000
13 0.0000 11.6619 23.3238 18.0278 45.2769 40.6079 15.8114 16.5529 33.5410 45.0000 36.0555 0.0000 36.2353 24.0208 0.0000 0.0000 0.0000 0.0000 36.2353 36.2353 36.2353 36.2353 24.0208 24.0208 24.0208 24.0208 0.0000
14 0.0000 11.6619 23.3238 18.0278 45.2769 40.6079 15.8114 16.5529 33.5410 45.0000 36.0555 0.0000 36.2353 24.0208 0.0000 0.0000 0.0000 0.0000 36.2353 36.2353 36.2353 36.2353 24.0208 24.0208 24.0208 24.0208 0.0000
15 0.0000 11.6619 23.3238 18.0278 45.2769 40.6079 15.8114 16.5529 33.5410 45.0000 36.0555 0.0000 36.2353 24.0208 0.0000 0.0000 0.0000 0.0000 36.2353 36.2353 36.2353 36.2353 24.0208 24.0208 24.0208 24.0208 0.0000
17 36.2353 31.8277 31.3847 54.2033 80.0812 8.0000 20.8087 48.0521 2.8284 78.8543 37.0540 36.2353 0.0000 58.8218 36.2353 36.2353 36.2353 36.2353 0.0000 0.0000 0.0000 0.0000 58.8218 58.8218 58.8218 58.8218 36.2353
18 36.2353 31.8277 31.3847 54.2033 80.0812 8.0000 20.8087 48.0521 2.8284 78.8543 37.0540 36.2353 0.0000 58.8218 36.2353 36.2353 36.2353 36.2353 0.0000 0.0000 0.0000 0.0000 58.8218 58.8218 58.8218 58.8218 36.2353
19 36.2353 31.8277 31.3847 54.2033 80.0812 8.0000 20.8087 48.0521 2.8284 78.8543 37.0540 36.2353 0.0000 58.8218 36.2353 36.2353 36.2353 36.2353 0.0000 0.0000 0.0000 0.0000 58.8218 58.8218 58.8218 58.8218 36.2353
20 36.2353 31.8277 31.3847 54.2033 80.0812 8.0000 20.8087 48.0521 2.8284 78.8543 37.0540 36.2353 0.0000 58.8218 36.2353 36.2353 36.2353 36.2353 0.0000 0.0000 0.0000 0.0000 58.8218 58.8218 58.8218 58.8218 36.2353
22 24.0208 34.3657 45.3542 12.7279 21.3776 61.7414 39.4588 12.0416 56.3205 21.0238 57.2451 24.0208 58.8218 0.0000 24.0208 24.0208 24.0208 24.0208 58.8218 58.8218 58.8218 58.8218 0.0000 0.0000 0.0000 0.0000 24.0208
23 24.0208 34.3657 45.3542 12.7279 21.3776 61.7414 39.4588 12.0416 56.3205 21.0238 57.2451 24.0208 58.8218 0.0000 24.0208 24.0208 24.0208 24.0208 58.8218 58.8218 58.8218 58.8218 0.0000 0.0000 0.0000 0.0000 24.0208
24 24.0208 34.3657 45.3542 12.7279 21.3776 61.7414 39.4588 12.0416 56.3205 21.0238 57.2451 24.0208 58.8218 0.0000 24.0208 24.0208 24.0208 24.0208 58.8218 58.8218 58.8218 58.8218 0.0000 0.0000 0.0000 0.0000 24.0208
25 24.0208 34.3657 45.3542 12.7279 21.3776 61.7414 39.4588 12.0416 56.3205 21.0238 57.2451 24.0208 58.8218 0.0000 24.0208 24.0208 24.0208 24.0208 58.8218 58.8218 58.8218 58.8218 0.0000 0.0000 0.0000 0.0000 24.0208
26 0.0000 11.6619 23.3238 18.0278 45.2769 40.6079 15.8114 16.5529 33.5410 45.0000 36.0555 0.0000 36.2353 24.0208 0.0000 0.0000 0.0000 0.0000 36.2353 36.2353 36.2353 36.2353 24.0208 24.0208 24.0208 24.0208 0.0000
;